835
247
69626
36992
791
7158
4761
7293
7822
36210
3897
36171
51904
545
3539
1683
7103
7907
14826
1000
2049
100
8736
861
3866
1054
0
393
3943
4631
3792
1606
208
506
1077
1429
82627
35769
778
8280
22788
12565
147
3783
1682
744
3691
3997
2124
659
22586
36546
782
67904
3989
8021
2042
151
963
103
7396
62
32
13991
2122
4487
3921
296
19
1764
14220
14511
14234
4112
20
23652
4894
4711
8713
14165
272
36533
6486
409
1822
1995
13845
7485
4381
14653
36353
1032
3806
59
3515
1225
323
4623
23899
3190
